problems/csplib-prob015/SchursLemma-models/noch/O2/lingeling/model_1_2-6-15-solution000001.eprime-solution
language ESSENCE' 1.0

letting boxes_PartitionAsSet_ExplicitR6_ExplicitVarSizeWithDummy be
        [[1, 2, 5, 8, 16, 16, 16, 16, 16, 16, 16, 16, 16, 16, 16; int(1..15)],
         [3, 4, 10, 12, 16, 16, 16, 16, 16, 16, 16, 16, 16, 16, 16; int(1..15)],
         [6, 7, 9, 14, 16, 16, 16, 16, 16, 16, 16, 16, 16, 16, 16; int(1..15)],
         [11, 16, 16, 16, 16, 16, 16, 16, 16, 16, 16, 16, 16, 16, 16; int(1..15)],
         [13, 16, 16, 16, 16, 16, 16, 16, 16, 16, 16, 16, 16, 16, 16; int(1..15)],
         [15, 16, 16, 16, 16, 16, 16, 16, 16, 16, 16, 16, 16, 16, 16; int(1..15)]; int(1..6)]
