problems/csplib-prob015/SchursLemma-models/noch/O2/lingeling/model_1_2-6-15-solution000001.solution
language Essence 1.3

letting boxes be partition({1, 2, 5, 8}, {3, 4, 10, 12}, {6, 7, 9, 14}, {11}, {13}, {15})
